(set-logic QF_NRA)
(set-info :source |Benchmarks generated from hycomp (https://es-static.fbk.eu/tools/hycomp/). BMC instances of non-linear hybrid automata taken from: Alessandro Cimatti, Sergio Mover, Stefano Tonetta, A quantifier-free SMT encoding of non-linear hybrid automata, FMCAD 2012 and Alessandro Cimatti, Sergio Mover, Stefano Tonetta, Quantier-free encoding of invariants for Hybrid Systems, Formal Methods in System Design. This instance solves a BMC problem of depth 3 and uses the encoding obtained with quantifier elimination using qepcad encoding. Contacts: Sergio Mover (mover@fbk.eu), Stefano Tonetta (tonettas@fbk.eu), Alessandro Cimatti (cimatti@fbk.eu).|)
(set-info :smt-lib-version 2.0)
(set-info :category "industrial")
(set-info :status unsat)
;; MathSAT API call trace
;; generated on Mon Mar 19 10:44:05 2012
(declare-fun b.x__AT0 () Real)
(declare-fun b.time__AT3 () Real)
(declare-fun b.speed_x__AT1 () Real)
(declare-fun b.speed_x__AT2 () Real)
(declare-fun b.delta__AT3 () Real)
(declare-fun b.time__AT1 () Real)
(declare-fun g__AT0 () Real)
(declare-fun b.y__AT0 () Real)
(declare-fun b.EVENT.0__AT1 () Bool)
(declare-fun b.speed_y__AT1 () Real)
(declare-fun b.speed_y__AT2 () Real)
(declare-fun b.EVENT.0__AT3 () Bool)
(declare-fun b.delta__AT1 () Real)
(declare-fun b.counter.0__AT0 () Bool)
(declare-fun b.EVENT.1__AT1 () Bool)
(declare-fun b.EVENT.1__AT3 () Bool)
(declare-fun b.y__AT4 () Real)
(declare-fun b.delta__AT0 () Real)
(declare-fun b.counter.1__AT0 () Bool)
(declare-fun b.EVENT.0__AT0 () Bool)
(declare-fun b.counter.3__AT3 () Bool)
(declare-fun b.event_is_timed__AT2 () Bool)
(declare-fun b.x__AT1 () Real)
(declare-fun b.x__AT3 () Real)
(declare-fun b.counter.3__AT2 () Bool)
(declare-fun b.speed_y__AT0 () Real)
(declare-fun b.time__AT2 () Real)
(declare-fun b.delta__AT2 () Real)
(declare-fun b.event_is_timed__AT0 () Bool)
(declare-fun b.x__AT2 () Real)
(declare-fun b.EVENT.0__AT2 () Bool)
(declare-fun b.EVENT.1__AT2 () Bool)
(declare-fun b.counter.3__AT0 () Bool)
(declare-fun b.y__AT3 () Real)
(declare-fun b.counter.0__AT3 () Bool)
(declare-fun b.counter.1__AT3 () Bool)
(declare-fun speed_loss__AT0 () Real)
(declare-fun b.counter.2__AT3 () Bool)
(declare-fun b.y__AT1 () Real)
(declare-fun b.y__AT2 () Real)
(declare-fun b.EVENT.1__AT0 () Bool)
(declare-fun b.event_is_timed__AT1 () Bool)
(declare-fun b.counter.0__AT2 () Bool)
(declare-fun b.counter.0__AT1 () Bool)
(declare-fun b.event_is_timed__AT3 () Bool)
(declare-fun b.speed_x__AT0 () Real)
(declare-fun b.counter.1__AT1 () Bool)
(declare-fun b.counter.1__AT2 () Bool)
(declare-fun b.time__AT0 () Real)
(declare-fun b.speed_x__AT3 () Real)
(declare-fun b.counter.2__AT0 () Bool)
(declare-fun b.counter.2__AT2 () Bool)
(declare-fun b.counter.2__AT1 () Bool)
(declare-fun b.speed_y__AT3 () Real)
(declare-fun b.counter.3__AT1 () Bool)
(assert (let ((.def_689 (= b.y__AT3 b.y__AT4)))
(let ((.def_690 (not .def_689)))
(let ((.def_662 (* 2.0 b.delta__AT3)))
(let ((.def_663 (* b.speed_y__AT3 .def_662)))
(let ((.def_659 (* b.delta__AT3 b.delta__AT3)))
(let ((.def_660 (* g__AT0 .def_659)))
(let ((.def_661 (* (- 1.0) .def_660)))
(let ((.def_664 (+ .def_661 .def_663)))
(let ((.def_665 (* 2.0 b.y__AT3)))
(let ((.def_667 (+ .def_665 .def_664)))
(let ((.def_682 (<= .def_667 0.0 )))
(let ((.def_683 (not .def_682)))
(let ((.def_679 (* b.speed_y__AT3 b.speed_y__AT3)))
(let ((.def_678 (* g__AT0 .def_665)))
(let ((.def_680 (+ .def_678 .def_679)))
(let ((.def_681 (<= .def_680 0.0 )))
(let ((.def_684 (and .def_681 .def_683)))
(let ((.def_641 (not b.EVENT.0__AT3)))
(let ((.def_639 (not b.EVENT.1__AT3)))
(let ((.def_652 (and .def_639 .def_641)))
(let ((.def_685 (and .def_652 .def_684)))
(let ((.def_672 (* b.speed_y__AT3 b.delta__AT3)))
(let ((.def_673 (+ .def_665 .def_672)))
(let ((.def_674 (<= 0.0 .def_673)))
(let ((.def_657 (<= 0.0 b.speed_y__AT3)))
(let ((.def_671 (not .def_657)))
(let ((.def_675 (and .def_671 .def_674)))
(let ((.def_668 (<= 0.0 .def_667)))
(let ((.def_676 (and .def_668 .def_675)))
(let ((.def_644 (<= 0.0 b.y__AT3)))
(let ((.def_658 (and .def_644 .def_657)))
(let ((.def_669 (and .def_658 .def_668)))
(let ((.def_655 (<= 0.0 b.delta__AT3)))
(let ((.def_656 (not .def_655)))
(let ((.def_670 (or .def_656 .def_669)))
(let ((.def_677 (or .def_670 .def_676)))
(let ((.def_686 (or .def_677 .def_685)))
(let ((.def_687 (not .def_686)))
(let ((.def_691 (or .def_687 .def_690)))
(let ((.def_653 (not .def_652)))
(let ((.def_692 (or .def_653 .def_691)))
(let ((.def_357 (not b.counter.0__AT2)))
(let ((.def_345 (not b.counter.1__AT2)))
(let ((.def_648 (and .def_345 .def_357)))
(let ((.def_352 (not b.counter.2__AT2)))
(let ((.def_649 (and .def_352 .def_648)))
(let ((.def_60 (<= speed_loss__AT0 (/ 1 2))))
(let ((.def_57 (<= (/ 1 10) speed_loss__AT0)))
(let ((.def_61 (and .def_57 .def_60)))
(let ((.def_52 (<= g__AT0 10.0 )))
(let ((.def_51 (<= 8.0 g__AT0)))
(let ((.def_53 (and .def_51 .def_52)))
(let ((.def_62 (and .def_53 .def_61)))
(let ((.def_645 (and .def_62 .def_644)))
(let ((.def_642 (or .def_639 .def_641)))
(let ((.def_6 (not b.counter.0__AT3)))
(let ((.def_4 (not b.counter.1__AT3)))
(let ((.def_632 (or .def_4 .def_6)))
(let ((.def_636 (or b.counter.3__AT3 .def_632)))
(let ((.def_633 (or b.counter.2__AT3 .def_632)))
(let ((.def_9 (not b.counter.2__AT3)))
(let ((.def_631 (or .def_6 .def_9)))
(let ((.def_634 (and .def_631 .def_633)))
(let ((.def_555 (not b.counter.3__AT3)))
(let ((.def_635 (or .def_555 .def_634)))
(let ((.def_637 (and .def_635 .def_636)))
(let ((.def_643 (and .def_637 .def_642)))
(let ((.def_646 (and .def_643 .def_645)))
(let ((.def_467 (<= 0.0 b.delta__AT2)))
(let ((.def_453 (not b.EVENT.0__AT2)))
(let ((.def_451 (not b.EVENT.1__AT2)))
(let ((.def_464 (and .def_451 .def_453)))
(let ((.def_465 (not .def_464)))
(let ((.def_627 (or .def_465 .def_467)))
(let ((.def_628 (or b.EVENT.1__AT2 .def_627)))
(let ((.def_577 (= b.counter.0__AT3 b.counter.0__AT2)))
(let ((.def_575 (= b.counter.1__AT3 b.counter.1__AT2)))
(let ((.def_573 (= b.counter.2__AT3 b.counter.2__AT2)))
(let ((.def_572 (= b.counter.3__AT2 b.counter.3__AT3)))
(let ((.def_574 (and .def_572 .def_573)))
(let ((.def_576 (and .def_574 .def_575)))
(let ((.def_578 (and .def_576 .def_577)))
(let ((.def_624 (or .def_465 .def_578)))
(let ((.def_625 (or b.EVENT.1__AT2 .def_624)))
(let ((.def_584 (= b.x__AT2 b.x__AT3)))
(let ((.def_501 (= b.y__AT2 b.y__AT3)))
(let ((.def_618 (and .def_501 .def_584)))
(let ((.def_516 (= b.speed_x__AT2 b.speed_x__AT3)))
(let ((.def_619 (and .def_516 .def_618)))
(let ((.def_571 (= b.speed_y__AT2 b.speed_y__AT3)))
(let ((.def_620 (and .def_571 .def_619)))
(let ((.def_615 (= b.delta__AT2 0.0 )))
(let ((.def_616 (and .def_464 .def_615)))
(let ((.def_617 (not .def_616)))
(let ((.def_621 (or .def_617 .def_620)))
(let ((.def_622 (or b.EVENT.1__AT2 .def_621)))
(let ((.def_595 (= b.time__AT2 b.time__AT3)))
(let ((.def_607 (and .def_584 .def_595)))
(let ((.def_608 (and .def_501 .def_607)))
(let ((.def_609 (and .def_516 .def_608)))
(let ((.def_610 (and .def_571 .def_609)))
(let ((.def_611 (and .def_578 .def_610)))
(let ((.def_612 (or .def_451 .def_611)))
(let ((.def_598 (* (- 1.0) b.time__AT3)))
(let ((.def_601 (+ b.delta__AT2 .def_598)))
(let ((.def_602 (+ b.time__AT2 .def_601)))
(let ((.def_603 (= .def_602 0.0 )))
(let ((.def_604 (or .def_465 .def_603)))
(let ((.def_605 (or b.EVENT.1__AT2 .def_604)))
(let ((.def_596 (or .def_464 .def_595)))
(let ((.def_597 (or b.EVENT.1__AT2 .def_596)))
(let ((.def_606 (and .def_597 .def_605)))
(let ((.def_613 (and .def_606 .def_612)))
(let ((.def_591 (= .def_465 b.event_is_timed__AT3)))
(let ((.def_589 (= b.event_is_timed__AT2 .def_464)))
(let ((.def_592 (and .def_589 .def_591)))
(let ((.def_579 (and .def_571 .def_578)))
(let ((.def_533 (= b.y__AT2 0.0 )))
(let ((.def_469 (<= 0.0 b.speed_y__AT2)))
(let ((.def_483 (not .def_469)))
(let ((.def_534 (and .def_483 .def_533)))
(let ((.def_580 (or .def_534 .def_579)))
(let ((.def_546 (or .def_6 b.counter.0__AT2)))
(let ((.def_545 (or b.counter.0__AT3 .def_357)))
(let ((.def_547 (and .def_545 .def_546)))
(let ((.def_548 (and .def_4 .def_547)))
(let ((.def_549 (or b.counter.1__AT2 .def_548)))
(let ((.def_544 (or b.counter.1__AT3 .def_345)))
(let ((.def_550 (and .def_544 .def_549)))
(let ((.def_563 (and .def_9 .def_550)))
(let ((.def_564 (or b.counter.2__AT2 .def_563)))
(let ((.def_558 (and .def_4 .def_357)))
(let ((.def_559 (or b.counter.1__AT2 .def_558)))
(let ((.def_560 (and .def_544 .def_559)))
(let ((.def_561 (and b.counter.2__AT3 .def_560)))
(let ((.def_562 (or .def_352 .def_561)))
(let ((.def_565 (and .def_562 .def_564)))
(let ((.def_566 (and b.counter.3__AT3 .def_565)))
(let ((.def_567 (or b.counter.3__AT2 .def_566)))
(let ((.def_551 (and b.counter.2__AT3 .def_550)))
(let ((.def_552 (or b.counter.2__AT2 .def_551)))
(let ((.def_540 (or b.counter.1__AT3 b.counter.1__AT2)))
(let ((.def_538 (and .def_4 b.counter.0__AT3)))
(let ((.def_539 (or .def_345 .def_538)))
(let ((.def_541 (and .def_539 .def_540)))
(let ((.def_542 (and .def_9 .def_541)))
(let ((.def_543 (or .def_352 .def_542)))
(let ((.def_553 (and .def_543 .def_552)))
(let ((.def_556 (and .def_553 .def_555)))
(let ((.def_367 (not b.counter.3__AT2)))
(let ((.def_557 (or .def_367 .def_556)))
(let ((.def_568 (and .def_557 .def_567)))
(let ((.def_333 (* (- 1.0) b.speed_y__AT2)))
(let ((.def_148 (* (- 1.0) speed_loss__AT0)))
(let ((.def_149 (+ 1.0 .def_148)))
(let ((.def_536 (* .def_149 .def_333)))
(let ((.def_537 (= b.speed_y__AT3 .def_536)))
(let ((.def_569 (and .def_537 .def_568)))
(let ((.def_535 (not .def_534)))
(let ((.def_570 (or .def_535 .def_569)))
(let ((.def_581 (and .def_570 .def_580)))
(let ((.def_582 (and .def_501 .def_581)))
(let ((.def_583 (and .def_516 .def_582)))
(let ((.def_585 (and .def_583 .def_584)))
(let ((.def_586 (or .def_464 .def_585)))
(let ((.def_587 (or b.EVENT.1__AT2 .def_586)))
(let ((.def_527 (* (- 1.0) b.speed_y__AT3)))
(let ((.def_111 (* (- 1.0) g__AT0)))
(let ((.def_525 (* .def_111 b.delta__AT2)))
(let ((.def_528 (+ .def_525 .def_527)))
(let ((.def_529 (+ b.speed_y__AT2 .def_528)))
(let ((.def_530 (= .def_529 0.0 )))
(let ((.def_520 (* (- 1.0) b.x__AT3)))
(let ((.def_518 (* b.speed_x__AT2 b.delta__AT2)))
(let ((.def_521 (+ .def_518 .def_520)))
(let ((.def_522 (+ b.x__AT2 .def_521)))
(let ((.def_523 (= .def_522 0.0 )))
(let ((.def_471 (* b.delta__AT2 b.delta__AT2)))
(let ((.def_112 (* (/ 1 2) .def_111)))
(let ((.def_506 (* .def_112 .def_471)))
(let ((.def_508 (* (- 1.0) b.y__AT3)))
(let ((.def_511 (+ .def_508 .def_506)))
(let ((.def_484 (* b.speed_y__AT2 b.delta__AT2)))
(let ((.def_512 (+ .def_484 .def_511)))
(let ((.def_513 (+ b.y__AT2 .def_512)))
(let ((.def_514 (= .def_513 0.0 )))
(let ((.def_517 (and .def_514 .def_516)))
(let ((.def_524 (and .def_517 .def_523)))
(let ((.def_531 (and .def_524 .def_530)))
(let ((.def_532 (or .def_465 .def_531)))
(let ((.def_588 (and .def_532 .def_587)))
(let ((.def_593 (and .def_588 .def_592)))
(let ((.def_614 (and .def_593 .def_613)))
(let ((.def_623 (and .def_614 .def_622)))
(let ((.def_626 (and .def_623 .def_625)))
(let ((.def_629 (and .def_626 .def_628)))
(let ((.def_630 (and .def_451 .def_629)))
(let ((.def_647 (and .def_630 .def_646)))
(let ((.def_650 (and .def_647 .def_649)))
(let ((.def_502 (not .def_501)))
(let ((.def_474 (* 2.0 b.delta__AT2)))
(let ((.def_475 (* b.speed_y__AT2 .def_474)))
(let ((.def_472 (* g__AT0 .def_471)))
(let ((.def_473 (* (- 1.0) .def_472)))
(let ((.def_476 (+ .def_473 .def_475)))
(let ((.def_477 (* 2.0 b.y__AT2)))
(let ((.def_479 (+ .def_477 .def_476)))
(let ((.def_494 (<= .def_479 0.0 )))
(let ((.def_495 (not .def_494)))
(let ((.def_491 (* b.speed_y__AT2 b.speed_y__AT2)))
(let ((.def_490 (* g__AT0 .def_477)))
(let ((.def_492 (+ .def_490 .def_491)))
(let ((.def_493 (<= .def_492 0.0 )))
(let ((.def_496 (and .def_493 .def_495)))
(let ((.def_497 (and .def_464 .def_496)))
(let ((.def_485 (+ .def_477 .def_484)))
(let ((.def_486 (<= 0.0 .def_485)))
(let ((.def_487 (and .def_483 .def_486)))
(let ((.def_480 (<= 0.0 .def_479)))
(let ((.def_488 (and .def_480 .def_487)))
(let ((.def_456 (<= 0.0 b.y__AT2)))
(let ((.def_470 (and .def_456 .def_469)))
(let ((.def_481 (and .def_470 .def_480)))
(let ((.def_468 (not .def_467)))
(let ((.def_482 (or .def_468 .def_481)))
(let ((.def_489 (or .def_482 .def_488)))
(let ((.def_498 (or .def_489 .def_497)))
(let ((.def_499 (not .def_498)))
(let ((.def_503 (or .def_499 .def_502)))
(let ((.def_504 (or .def_465 .def_503)))
(let ((.def_165 (not b.counter.0__AT1)))
(let ((.def_153 (not b.counter.1__AT1)))
(let ((.def_460 (and .def_153 .def_165)))
(let ((.def_160 (not b.counter.2__AT1)))
(let ((.def_461 (and .def_160 .def_460)))
(let ((.def_457 (and .def_62 .def_456)))
(let ((.def_454 (or .def_451 .def_453)))
(let ((.def_444 (or .def_345 .def_357)))
(let ((.def_448 (or b.counter.3__AT2 .def_444)))
(let ((.def_445 (or b.counter.2__AT2 .def_444)))
(let ((.def_443 (or .def_352 .def_357)))
(let ((.def_446 (and .def_443 .def_445)))
(let ((.def_447 (or .def_367 .def_446)))
(let ((.def_449 (and .def_447 .def_448)))
(let ((.def_455 (and .def_449 .def_454)))
(let ((.def_458 (and .def_455 .def_457)))
(let ((.def_273 (<= 0.0 b.delta__AT1)))
(let ((.def_261 (not b.EVENT.0__AT1)))
(let ((.def_259 (not b.EVENT.1__AT1)))
(let ((.def_270 (and .def_259 .def_261)))
(let ((.def_271 (not .def_270)))
(let ((.def_439 (or .def_271 .def_273)))
(let ((.def_440 (or b.EVENT.1__AT1 .def_439)))
(let ((.def_389 (= b.counter.0__AT1 b.counter.0__AT2)))
(let ((.def_387 (= b.counter.1__AT1 b.counter.1__AT2)))
(let ((.def_385 (= b.counter.2__AT1 b.counter.2__AT2)))
(let ((.def_384 (= b.counter.3__AT1 b.counter.3__AT2)))
(let ((.def_386 (and .def_384 .def_385)))
(let ((.def_388 (and .def_386 .def_387)))
(let ((.def_390 (and .def_388 .def_389)))
(let ((.def_436 (or .def_271 .def_390)))
(let ((.def_437 (or b.EVENT.1__AT1 .def_436)))
(let ((.def_396 (= b.x__AT1 b.x__AT2)))
(let ((.def_307 (= b.y__AT1 b.y__AT2)))
(let ((.def_430 (and .def_307 .def_396)))
(let ((.def_322 (= b.speed_x__AT1 b.speed_x__AT2)))
(let ((.def_431 (and .def_322 .def_430)))
(let ((.def_383 (= b.speed_y__AT1 b.speed_y__AT2)))
(let ((.def_432 (and .def_383 .def_431)))
(let ((.def_427 (= b.delta__AT1 0.0 )))
(let ((.def_428 (and .def_270 .def_427)))
(let ((.def_429 (not .def_428)))
(let ((.def_433 (or .def_429 .def_432)))
(let ((.def_434 (or b.EVENT.1__AT1 .def_433)))
(let ((.def_407 (= b.time__AT1 b.time__AT2)))
(let ((.def_419 (and .def_396 .def_407)))
(let ((.def_420 (and .def_307 .def_419)))
(let ((.def_421 (and .def_322 .def_420)))
(let ((.def_422 (and .def_383 .def_421)))
(let ((.def_423 (and .def_390 .def_422)))
(let ((.def_424 (or .def_259 .def_423)))
(let ((.def_410 (* (- 1.0) b.time__AT2)))
(let ((.def_413 (+ b.delta__AT1 .def_410)))
(let ((.def_414 (+ b.time__AT1 .def_413)))
(let ((.def_415 (= .def_414 0.0 )))
(let ((.def_416 (or .def_271 .def_415)))
(let ((.def_417 (or b.EVENT.1__AT1 .def_416)))
(let ((.def_408 (or .def_270 .def_407)))
(let ((.def_409 (or b.EVENT.1__AT1 .def_408)))
(let ((.def_418 (and .def_409 .def_417)))
(let ((.def_425 (and .def_418 .def_424)))
(let ((.def_403 (= .def_271 b.event_is_timed__AT2)))
(let ((.def_401 (= b.event_is_timed__AT1 .def_270)))
(let ((.def_404 (and .def_401 .def_403)))
(let ((.def_391 (and .def_383 .def_390)))
(let ((.def_339 (= b.y__AT1 0.0 )))
(let ((.def_275 (<= 0.0 b.speed_y__AT1)))
(let ((.def_289 (not .def_275)))
(let ((.def_340 (and .def_289 .def_339)))
(let ((.def_392 (or .def_340 .def_391)))
(let ((.def_358 (or b.counter.0__AT1 .def_357)))
(let ((.def_356 (or .def_165 b.counter.0__AT2)))
(let ((.def_359 (and .def_356 .def_358)))
(let ((.def_360 (and .def_345 .def_359)))
(let ((.def_361 (or b.counter.1__AT1 .def_360)))
(let ((.def_355 (or .def_153 b.counter.1__AT2)))
(let ((.def_362 (and .def_355 .def_361)))
(let ((.def_375 (and .def_352 .def_362)))
(let ((.def_376 (or b.counter.2__AT1 .def_375)))
(let ((.def_370 (and .def_165 .def_345)))
(let ((.def_371 (or b.counter.1__AT1 .def_370)))
(let ((.def_372 (and .def_355 .def_371)))
(let ((.def_373 (and b.counter.2__AT2 .def_372)))
(let ((.def_374 (or .def_160 .def_373)))
(let ((.def_377 (and .def_374 .def_376)))
(let ((.def_378 (and b.counter.3__AT2 .def_377)))
(let ((.def_379 (or b.counter.3__AT1 .def_378)))
(let ((.def_363 (and b.counter.2__AT2 .def_362)))
(let ((.def_364 (or b.counter.2__AT1 .def_363)))
(let ((.def_349 (or b.counter.1__AT1 b.counter.1__AT2)))
(let ((.def_347 (and .def_345 b.counter.0__AT2)))
(let ((.def_348 (or .def_153 .def_347)))
(let ((.def_350 (and .def_348 .def_349)))
(let ((.def_353 (and .def_350 .def_352)))
(let ((.def_354 (or .def_160 .def_353)))
(let ((.def_365 (and .def_354 .def_364)))
(let ((.def_368 (and .def_365 .def_367)))
(let ((.def_175 (not b.counter.3__AT1)))
(let ((.def_369 (or .def_175 .def_368)))
(let ((.def_380 (and .def_369 .def_379)))
(let ((.def_138 (* (- 1.0) b.speed_y__AT1)))
(let ((.def_342 (* .def_138 .def_149)))
(let ((.def_343 (= b.speed_y__AT2 .def_342)))
(let ((.def_381 (and .def_343 .def_380)))
(let ((.def_341 (not .def_340)))
(let ((.def_382 (or .def_341 .def_381)))
(let ((.def_393 (and .def_382 .def_392)))
(let ((.def_394 (and .def_307 .def_393)))
(let ((.def_395 (and .def_322 .def_394)))
(let ((.def_397 (and .def_395 .def_396)))
(let ((.def_398 (or .def_270 .def_397)))
(let ((.def_399 (or b.EVENT.1__AT1 .def_398)))
(let ((.def_331 (* .def_111 b.delta__AT1)))
(let ((.def_334 (+ .def_331 .def_333)))
(let ((.def_335 (+ b.speed_y__AT1 .def_334)))
(let ((.def_336 (= .def_335 0.0 )))
(let ((.def_326 (* (- 1.0) b.x__AT2)))
(let ((.def_324 (* b.speed_x__AT1 b.delta__AT1)))
(let ((.def_327 (+ .def_324 .def_326)))
(let ((.def_328 (+ b.x__AT1 .def_327)))
(let ((.def_329 (= .def_328 0.0 )))
(let ((.def_277 (* b.delta__AT1 b.delta__AT1)))
(let ((.def_312 (* .def_112 .def_277)))
(let ((.def_314 (* (- 1.0) b.y__AT2)))
(let ((.def_317 (+ .def_314 .def_312)))
(let ((.def_290 (* b.speed_y__AT1 b.delta__AT1)))
(let ((.def_318 (+ .def_290 .def_317)))
(let ((.def_319 (+ b.y__AT1 .def_318)))
(let ((.def_320 (= .def_319 0.0 )))
(let ((.def_323 (and .def_320 .def_322)))
(let ((.def_330 (and .def_323 .def_329)))
(let ((.def_337 (and .def_330 .def_336)))
(let ((.def_338 (or .def_271 .def_337)))
(let ((.def_400 (and .def_338 .def_399)))
(let ((.def_405 (and .def_400 .def_404)))
(let ((.def_426 (and .def_405 .def_425)))
(let ((.def_435 (and .def_426 .def_434)))
(let ((.def_438 (and .def_435 .def_437)))
(let ((.def_441 (and .def_438 .def_440)))
(let ((.def_442 (and .def_259 .def_441)))
(let ((.def_459 (and .def_442 .def_458)))
(let ((.def_462 (and .def_459 .def_461)))
(let ((.def_308 (not .def_307)))
(let ((.def_280 (* 2.0 b.delta__AT1)))
(let ((.def_281 (* b.speed_y__AT1 .def_280)))
(let ((.def_278 (* g__AT0 .def_277)))
(let ((.def_279 (* (- 1.0) .def_278)))
(let ((.def_282 (+ .def_279 .def_281)))
(let ((.def_283 (* 2.0 b.y__AT1)))
(let ((.def_285 (+ .def_283 .def_282)))
(let ((.def_300 (<= .def_285 0.0 )))
(let ((.def_301 (not .def_300)))
(let ((.def_297 (* b.speed_y__AT1 b.speed_y__AT1)))
(let ((.def_296 (* g__AT0 .def_283)))
(let ((.def_298 (+ .def_296 .def_297)))
(let ((.def_299 (<= .def_298 0.0 )))
(let ((.def_302 (and .def_299 .def_301)))
(let ((.def_303 (and .def_270 .def_302)))
(let ((.def_291 (+ .def_283 .def_290)))
(let ((.def_292 (<= 0.0 .def_291)))
(let ((.def_293 (and .def_289 .def_292)))
(let ((.def_286 (<= 0.0 .def_285)))
(let ((.def_294 (and .def_286 .def_293)))
(let ((.def_264 (<= 0.0 b.y__AT1)))
(let ((.def_276 (and .def_264 .def_275)))
(let ((.def_287 (and .def_276 .def_286)))
(let ((.def_274 (not .def_273)))
(let ((.def_288 (or .def_274 .def_287)))
(let ((.def_295 (or .def_288 .def_294)))
(let ((.def_304 (or .def_295 .def_303)))
(let ((.def_305 (not .def_304)))
(let ((.def_309 (or .def_305 .def_308)))
(let ((.def_310 (or .def_271 .def_309)))
(let ((.def_265 (and .def_62 .def_264)))
(let ((.def_262 (or .def_259 .def_261)))
(let ((.def_252 (or .def_153 .def_165)))
(let ((.def_256 (or b.counter.3__AT1 .def_252)))
(let ((.def_253 (or b.counter.2__AT1 .def_252)))
(let ((.def_251 (or .def_160 .def_165)))
(let ((.def_254 (and .def_251 .def_253)))
(let ((.def_255 (or .def_175 .def_254)))
(let ((.def_257 (and .def_255 .def_256)))
(let ((.def_263 (and .def_257 .def_262)))
(let ((.def_266 (and .def_263 .def_265)))
(let ((.def_71 (<= 0.0 b.delta__AT0)))
(let ((.def_46 (not b.EVENT.0__AT0)))
(let ((.def_44 (not b.EVENT.1__AT0)))
(let ((.def_68 (and .def_44 .def_46)))
(let ((.def_69 (not .def_68)))
(let ((.def_247 (or .def_69 .def_71)))
(let ((.def_248 (or b.EVENT.1__AT0 .def_247)))
(let ((.def_197 (= b.counter.0__AT0 b.counter.0__AT1)))
(let ((.def_195 (= b.counter.1__AT0 b.counter.1__AT1)))
(let ((.def_193 (= b.counter.2__AT0 b.counter.2__AT1)))
(let ((.def_192 (= b.counter.3__AT0 b.counter.3__AT1)))
(let ((.def_194 (and .def_192 .def_193)))
(let ((.def_196 (and .def_194 .def_195)))
(let ((.def_198 (and .def_196 .def_197)))
(let ((.def_244 (or .def_69 .def_198)))
(let ((.def_245 (or b.EVENT.1__AT0 .def_244)))
(let ((.def_204 (= b.x__AT1 b.x__AT0)))
(let ((.def_106 (= b.y__AT0 b.y__AT1)))
(let ((.def_238 (and .def_106 .def_204)))
(let ((.def_124 (= b.speed_x__AT0 b.speed_x__AT1)))
(let ((.def_239 (and .def_124 .def_238)))
(let ((.def_191 (= b.speed_y__AT0 b.speed_y__AT1)))
(let ((.def_240 (and .def_191 .def_239)))
(let ((.def_235 (= b.delta__AT0 0.0 )))
(let ((.def_236 (and .def_68 .def_235)))
(let ((.def_237 (not .def_236)))
(let ((.def_241 (or .def_237 .def_240)))
(let ((.def_242 (or b.EVENT.1__AT0 .def_241)))
(let ((.def_215 (= b.time__AT0 b.time__AT1)))
(let ((.def_227 (and .def_204 .def_215)))
(let ((.def_228 (and .def_106 .def_227)))
(let ((.def_229 (and .def_124 .def_228)))
(let ((.def_230 (and .def_191 .def_229)))
(let ((.def_231 (and .def_198 .def_230)))
(let ((.def_232 (or .def_44 .def_231)))
(let ((.def_218 (* (- 1.0) b.time__AT1)))
(let ((.def_221 (+ b.delta__AT0 .def_218)))
(let ((.def_222 (+ b.time__AT0 .def_221)))
(let ((.def_223 (= .def_222 0.0 )))
(let ((.def_224 (or .def_69 .def_223)))
(let ((.def_225 (or b.EVENT.1__AT0 .def_224)))
(let ((.def_216 (or .def_68 .def_215)))
(let ((.def_217 (or b.EVENT.1__AT0 .def_216)))
(let ((.def_226 (and .def_217 .def_225)))
(let ((.def_233 (and .def_226 .def_232)))
(let ((.def_211 (= .def_69 b.event_is_timed__AT1)))
(let ((.def_209 (= b.event_is_timed__AT0 .def_68)))
(let ((.def_212 (and .def_209 .def_211)))
(let ((.def_199 (and .def_191 .def_198)))
(let ((.def_144 (= b.y__AT0 0.0 )))
(let ((.def_73 (<= 0.0 b.speed_y__AT0)))
(let ((.def_88 (not .def_73)))
(let ((.def_145 (and .def_88 .def_144)))
(let ((.def_200 (or .def_145 .def_199)))
(let ((.def_166 (or b.counter.0__AT0 .def_165)))
(let ((.def_27 (not b.counter.0__AT0)))
(let ((.def_164 (or .def_27 b.counter.0__AT1)))
(let ((.def_167 (and .def_164 .def_166)))
(let ((.def_168 (and .def_153 .def_167)))
(let ((.def_169 (or b.counter.1__AT0 .def_168)))
(let ((.def_25 (not b.counter.1__AT0)))
(let ((.def_163 (or .def_25 b.counter.1__AT1)))
(let ((.def_170 (and .def_163 .def_169)))
(let ((.def_183 (and .def_160 .def_170)))
(let ((.def_184 (or b.counter.2__AT0 .def_183)))
(let ((.def_178 (and .def_27 .def_153)))
(let ((.def_179 (or b.counter.1__AT0 .def_178)))
(let ((.def_180 (and .def_163 .def_179)))
(let ((.def_181 (and b.counter.2__AT1 .def_180)))
(let ((.def_30 (not b.counter.2__AT0)))
(let ((.def_182 (or .def_30 .def_181)))
(let ((.def_185 (and .def_182 .def_184)))
(let ((.def_186 (and b.counter.3__AT1 .def_185)))
(let ((.def_187 (or b.counter.3__AT0 .def_186)))
(let ((.def_171 (and b.counter.2__AT1 .def_170)))
(let ((.def_172 (or b.counter.2__AT0 .def_171)))
(let ((.def_157 (or b.counter.1__AT0 b.counter.1__AT1)))
(let ((.def_155 (and .def_153 b.counter.0__AT1)))
(let ((.def_156 (or .def_25 .def_155)))
(let ((.def_158 (and .def_156 .def_157)))
(let ((.def_161 (and .def_158 .def_160)))
(let ((.def_162 (or .def_30 .def_161)))
(let ((.def_173 (and .def_162 .def_172)))
(let ((.def_176 (and .def_173 .def_175)))
(let ((.def_33 (not b.counter.3__AT0)))
(let ((.def_177 (or .def_33 .def_176)))
(let ((.def_188 (and .def_177 .def_187)))
(let ((.def_147 (* (- 1.0) b.speed_y__AT0)))
(let ((.def_150 (* .def_147 .def_149)))
(let ((.def_151 (= b.speed_y__AT1 .def_150)))
(let ((.def_189 (and .def_151 .def_188)))
(let ((.def_146 (not .def_145)))
(let ((.def_190 (or .def_146 .def_189)))
(let ((.def_201 (and .def_190 .def_200)))
(let ((.def_202 (and .def_106 .def_201)))
(let ((.def_203 (and .def_124 .def_202)))
(let ((.def_205 (and .def_203 .def_204)))
(let ((.def_206 (or .def_68 .def_205)))
(let ((.def_207 (or b.EVENT.1__AT0 .def_206)))
(let ((.def_136 (* b.delta__AT0 .def_111)))
(let ((.def_139 (+ .def_136 .def_138)))
(let ((.def_140 (+ b.speed_y__AT0 .def_139)))
(let ((.def_141 (= .def_140 0.0 )))
(let ((.def_128 (* (- 1.0) b.x__AT1)))
(let ((.def_132 (+ .def_128 b.x__AT0)))
(let ((.def_126 (* b.delta__AT0 b.speed_x__AT0)))
(let ((.def_133 (+ .def_126 .def_132)))
(let ((.def_134 (= .def_133 0.0 )))
(let ((.def_75 (* b.delta__AT0 b.delta__AT0)))
(let ((.def_113 (* .def_75 .def_112)))
(let ((.def_115 (* (- 1.0) b.y__AT1)))
(let ((.def_118 (+ .def_115 .def_113)))
(let ((.def_89 (* b.speed_y__AT0 b.delta__AT0)))
(let ((.def_119 (+ .def_89 .def_118)))
(let ((.def_120 (+ b.y__AT0 .def_119)))
(let ((.def_121 (= .def_120 0.0 )))
(let ((.def_125 (and .def_121 .def_124)))
(let ((.def_135 (and .def_125 .def_134)))
(let ((.def_142 (and .def_135 .def_141)))
(let ((.def_143 (or .def_69 .def_142)))
(let ((.def_208 (and .def_143 .def_207)))
(let ((.def_213 (and .def_208 .def_212)))
(let ((.def_234 (and .def_213 .def_233)))
(let ((.def_243 (and .def_234 .def_242)))
(let ((.def_246 (and .def_243 .def_245)))
(let ((.def_249 (and .def_246 .def_248)))
(let ((.def_250 (and .def_44 .def_249)))
(let ((.def_267 (and .def_250 .def_266)))
(let ((.def_28 (and .def_25 .def_27)))
(let ((.def_31 (and .def_28 .def_30)))
(let ((.def_268 (and .def_31 .def_267)))
(let ((.def_107 (not .def_106)))
(let ((.def_79 (* 2.0 b.delta__AT0)))
(let ((.def_80 (* b.speed_y__AT0 .def_79)))
(let ((.def_76 (* g__AT0 .def_75)))
(let ((.def_78 (* (- 1.0) .def_76)))
(let ((.def_81 (+ .def_78 .def_80)))
(let ((.def_82 (* 2.0 b.y__AT0)))
(let ((.def_84 (+ .def_82 .def_81)))
(let ((.def_99 (<= .def_84 0.0 )))
(let ((.def_100 (not .def_99)))
(let ((.def_96 (* b.speed_y__AT0 b.speed_y__AT0)))
(let ((.def_95 (* g__AT0 .def_82)))
(let ((.def_97 (+ .def_95 .def_96)))
(let ((.def_98 (<= .def_97 0.0 )))
(let ((.def_101 (and .def_98 .def_100)))
(let ((.def_102 (and .def_68 .def_101)))
(let ((.def_90 (+ .def_82 .def_89)))
(let ((.def_91 (<= 0.0 .def_90)))
(let ((.def_92 (and .def_88 .def_91)))
(let ((.def_85 (<= 0.0 .def_84)))
(let ((.def_93 (and .def_85 .def_92)))
(let ((.def_63 (<= 0.0 b.y__AT0)))
(let ((.def_74 (and .def_63 .def_73)))
(let ((.def_86 (and .def_74 .def_85)))
(let ((.def_72 (not .def_71)))
(let ((.def_87 (or .def_72 .def_86)))
(let ((.def_94 (or .def_87 .def_93)))
(let ((.def_103 (or .def_94 .def_102)))
(let ((.def_104 (not .def_103)))
(let ((.def_108 (or .def_104 .def_107)))
(let ((.def_109 (or .def_69 .def_108)))
(let ((.def_64 (and .def_62 .def_63)))
(let ((.def_47 (or .def_44 .def_46)))
(let ((.def_37 (or .def_25 .def_27)))
(let ((.def_41 (or b.counter.3__AT0 .def_37)))
(let ((.def_38 (or b.counter.2__AT0 .def_37)))
(let ((.def_36 (or .def_27 .def_30)))
(let ((.def_39 (and .def_36 .def_38)))
(let ((.def_40 (or .def_33 .def_39)))
(let ((.def_42 (and .def_40 .def_41)))
(let ((.def_48 (and .def_42 .def_47)))
(let ((.def_65 (and .def_48 .def_64)))
(let ((.def_34 (and .def_31 .def_33)))
(let ((.def_22 (= b.speed_y__AT0 0.0 )))
(let ((.def_19 (= b.y__AT0 10.0 )))
(let ((.def_14 (= b.time__AT0 0.0 )))
(let ((.def_16 (and .def_14 b.event_is_timed__AT0)))
(let ((.def_20 (and .def_16 .def_19)))
(let ((.def_23 (and .def_20 .def_22)))
(let ((.def_35 (and .def_23 .def_34)))
(let ((.def_66 (and .def_35 .def_65)))
(let ((.def_7 (and .def_4 .def_6)))
(let ((.def_10 (and .def_7 .def_9)))
(let ((.def_11 (not .def_10)))
(let ((.def_67 (and .def_11 .def_66)))
(let ((.def_110 (and .def_67 .def_109)))
(let ((.def_269 (and .def_110 .def_268)))
(let ((.def_311 (and .def_269 .def_310)))
(let ((.def_463 (and .def_311 .def_462)))
(let ((.def_505 (and .def_463 .def_504)))
(let ((.def_651 (and .def_505 .def_650)))
(let ((.def_693 (and .def_651 .def_692)))
.def_693))))))))))))))))))))))))))))))))))))))))))))))))))))))))))))))))))))))))))))))))))))))))))))))))))))))))))))))))))))))))))))))))))))))))))))))))))))))))))))))))))))))))))))))))))))))))))))))))))))))))))))))))))))))))))))))))))))))))))))))))))))))))))))))))))))))))))))))))))))))))))))))))))))))))))))))))))))))))))))))))))))))))))))))))))))))))))))))))))))))))))))))))))))))))))))))))))))))))))))))))))))))))))))))))))))))))))))))))))))))))))))))))))))))))))))))))))))))))))))))))))))))))))))))))))))))))))))))))))))))))))))))))))))))))))))))))))))))))))))))))))))))))))))))))))))))))))))))))))))))))))))))))
(check-sat)
(exit)
